k = 75;
b = 37;
AtomicConstraints =  [|
2, 52|
	2, 48|
	2, 46|
	2, 55|
	2, 56|
	2, 51|
	2, 38|
	2, 47|
	2, 23|
	2, 24|
	2, 25|
	2, 26|
	2, 27|
	2, 75|
	2, 67|
	2, 66|
	2, 69|
	2, 59|
	2, 58|
	2, 57|
	2, 70|
	2, 71|
	2, 72|
	2, 73|
	2, 74|
	2, 54|
	2, 68|
	2, 40|
	3, 52|
	3, 48|
	3, 46|
	3, 55|
	3, 56|
	3, 51|
	3, 38|
	3, 47|
	3, 23|
	3, 24|
	3, 25|
	3, 26|
	3, 27|
	3, 75|
	3, 67|
	3, 66|
	3, 69|
	3, 59|
	3, 58|
	3, 57|
	3, 70|
	3, 71|
	3, 72|
	3, 73|
	3, 74|
	3, 54|
	3, 68|
	3, 40|
	4, 52|
	4, 48|
	4, 46|
	4, 55|
	4, 56|
	4, 51|
	4, 38|
	4, 47|
	4, 23|
	4, 24|
	4, 25|
	4, 26|
	4, 27|
	4, 75|
	4, 67|
	4, 66|
	4, 69|
	4, 59|
	4, 58|
	4, 57|
	4, 70|
	4, 71|
	4, 72|
	4, 73|
	4, 74|
	4, 54|
	4, 68|
	4, 40|
	5, 52|
	5, 48|
	5, 46|
	5, 55|
	5, 56|
	5, 51|
	5, 38|
	5, 47|
	5, 23|
	5, 24|
	5, 25|
	5, 26|
	5, 27|
	5, 75|
	5, 67|
	5, 66|
	5, 69|
	5, 59|
	5, 58|
	5, 57|
	5, 70|
	5, 71|
	5, 72|
	5, 73|
	5, 74|
	5, 54|
	5, 68|
	5, 40|
	6, 52|
	6, 48|
	6, 46|
	6, 55|
	6, 56|
	6, 51|
	6, 38|
	6, 47|
	6, 23|
	6, 24|
	6, 25|
	6, 26|
	6, 27|
	6, 75|
	6, 67|
	6, 66|
	6, 69|
	6, 59|
	6, 58|
	6, 57|
	6, 70|
	6, 71|
	6, 72|
	6, 73|
	6, 74|
	6, 54|
	6, 68|
	6, 40|
	7, 52|
	7, 48|
	7, 46|
	7, 55|
	7, 56|
	7, 51|
	7, 38|
	7, 47|
	7, 23|
	7, 24|
	7, 25|
	7, 26|
	7, 27|
	7, 75|
	7, 67|
	7, 66|
	7, 69|
	7, 59|
	7, 58|
	7, 57|
	7, 70|
	7, 71|
	7, 72|
	7, 73|
	7, 74|
	7, 54|
	7, 68|
	7, 40|
	8, 52|
	8, 48|
	8, 46|
	8, 55|
	8, 56|
	8, 51|
	8, 38|
	8, 47|
	8, 23|
	8, 24|
	8, 25|
	8, 26|
	8, 27|
	8, 75|
	8, 67|
	8, 66|
	8, 69|
	8, 59|
	8, 58|
	8, 57|
	8, 70|
	8, 71|
	8, 72|
	8, 73|
	8, 74|
	8, 54|
	8, 68|
	8, 40|
	9, 52|
	9, 48|
	9, 46|
	9, 55|
	9, 56|
	9, 51|
	9, 38|
	9, 47|
	9, 23|
	9, 24|
	9, 25|
	9, 26|
	9, 27|
	9, 75|
	9, 67|
	9, 66|
	9, 69|
	9, 59|
	9, 58|
	9, 57|
	9, 70|
	9, 71|
	9, 72|
	9, 73|
	9, 74|
	9, 54|
	9, 68|
	9, 40|
	10, 52|
	10, 48|
	10, 46|
	10, 55|
	10, 56|
	10, 51|
	10, 38|
	10, 47|
	10, 23|
	10, 24|
	10, 25|
	10, 26|
	10, 27|
	10, 75|
	10, 67|
	10, 66|
	10, 69|
	10, 59|
	10, 58|
	10, 57|
	10, 70|
	10, 71|
	10, 72|
	10, 73|
	10, 74|
	10, 54|
	10, 68|
	10, 40|
	1, 52|
	1, 48|
	1, 46|
	1, 55|
	1, 56|
	1, 51|
	1, 38|
	1, 47|
	1, 23|
	1, 24|
	1, 25|
	1, 26|
	1, 27|
	1, 60|
	1, 33|
	1, 34|
	1, 35|
	1, 61|
	1, 62|
	1, 63|
	1, 64|
	1, 65|
	1, 36|
	1, 37|
	1, 75|
	1, 67|
	1, 66|
	1, 69|
	1, 59|
	1, 58|
	1, 57|
	1, 70|
	1, 71|
	1, 72|
	1, 73|
	1, 74|
	1, 54|
	1, 68|
	1, 40|
	12, 52|
	12, 48|
	12, 46|
	12, 55|
	12, 56|
	12, 51|
	12, 38|
	12, 47|
	12, 23|
	12, 24|
	12, 25|
	12, 26|
	12, 27|
	12, 75|
	12, 67|
	12, 66|
	12, 69|
	12, 59|
	12, 58|
	12, 57|
	12, 70|
	12, 71|
	12, 72|
	12, 73|
	12, 74|
	12, 54|
	12, 68|
	12, 40|
	13, 1|
	13, 11|
	13, 14|
	13, 52|
	13, 48|
	13, 46|
	13, 55|
	13, 56|
	13, 51|
	13, 38|
	13, 47|
	13, 23|
	13, 24|
	13, 25|
	13, 26|
	13, 27|
	13, 60|
	13, 33|
	13, 34|
	13, 35|
	13, 61|
	13, 62|
	13, 63|
	13, 64|
	13, 65|
	13, 36|
	13, 37|
	13, 75|
	13, 67|
	13, 66|
	13, 69|
	13, 59|
	13, 58|
	13, 57|
	13, 70|
	13, 71|
	13, 72|
	13, 73|
	13, 74|
	13, 54|
	13, 68|
	13, 40|
	49, 1|
	49, 11|
	49, 14|
	49, 18|
	49, 52|
	49, 48|
	49, 46|
	49, 55|
	49, 56|
	49, 51|
	49, 38|
	49, 47|
	49, 23|
	49, 24|
	49, 25|
	49, 26|
	49, 27|
	49, 60|
	49, 33|
	49, 34|
	49, 35|
	49, 61|
	49, 62|
	49, 63|
	49, 64|
	49, 65|
	49, 36|
	49, 37|
	49, 75|
	49, 67|
	49, 66|
	49, 69|
	49, 59|
	49, 58|
	49, 57|
	49, 70|
	49, 71|
	49, 72|
	49, 73|
	49, 74|
	49, 54|
	49, 68|
	49, 40|
	11, 52|
	11, 48|
	11, 46|
	11, 55|
	11, 56|
	11, 51|
	11, 38|
	11, 47|
	11, 23|
	11, 24|
	11, 25|
	11, 26|
	11, 27|
	11, 60|
	11, 33|
	11, 34|
	11, 35|
	11, 61|
	11, 62|
	11, 63|
	11, 64|
	11, 65|
	11, 36|
	11, 37|
	11, 75|
	11, 67|
	11, 66|
	11, 69|
	11, 59|
	11, 58|
	11, 57|
	11, 70|
	11, 71|
	11, 72|
	11, 73|
	11, 74|
	11, 54|
	11, 68|
	11, 40|
	15, 11|
	15, 14|
	15, 18|
	15, 19|
	15, 52|
	15, 48|
	15, 46|
	15, 55|
	15, 56|
	15, 51|
	15, 38|
	15, 47|
	15, 23|
	15, 24|
	15, 25|
	15, 26|
	15, 27|
	15, 33|
	15, 34|
	15, 35|
	15, 61|
	15, 62|
	15, 63|
	15, 64|
	15, 65|
	15, 36|
	15, 37|
	15, 75|
	15, 67|
	15, 66|
	15, 69|
	15, 59|
	15, 58|
	15, 57|
	15, 70|
	15, 71|
	15, 72|
	15, 73|
	15, 74|
	15, 54|
	15, 68|
	15, 40|
	16, 14|
	16, 18|
	16, 19|
	16, 53|
	16, 52|
	16, 48|
	16, 46|
	16, 55|
	16, 56|
	16, 51|
	16, 38|
	16, 47|
	16, 23|
	16, 24|
	16, 25|
	16, 26|
	16, 27|
	16, 33|
	16, 34|
	16, 35|
	16, 62|
	16, 63|
	16, 64|
	16, 65|
	16, 36|
	16, 37|
	16, 75|
	16, 67|
	16, 66|
	16, 69|
	16, 59|
	16, 58|
	16, 57|
	16, 70|
	16, 71|
	16, 72|
	16, 73|
	16, 74|
	16, 54|
	16, 68|
	16, 40|
	50, 18|
	50, 19|
	50, 53|
	50, 20|
	50, 52|
	50, 48|
	50, 46|
	50, 55|
	50, 56|
	50, 51|
	50, 38|
	50, 47|
	50, 23|
	50, 24|
	50, 25|
	50, 26|
	50, 27|
	50, 33|
	50, 34|
	50, 35|
	50, 63|
	50, 64|
	50, 65|
	50, 36|
	50, 37|
	50, 75|
	50, 67|
	50, 66|
	50, 69|
	50, 59|
	50, 58|
	50, 57|
	50, 70|
	50, 71|
	50, 72|
	50, 73|
	50, 74|
	50, 54|
	50, 68|
	50, 40|
	17, 19|
	17, 53|
	17, 20|
	17, 21|
	17, 52|
	17, 48|
	17, 46|
	17, 55|
	17, 56|
	17, 51|
	17, 38|
	17, 47|
	17, 23|
	17, 24|
	17, 25|
	17, 26|
	17, 27|
	17, 33|
	17, 34|
	17, 35|
	17, 64|
	17, 65|
	17, 37|
	17, 75|
	17, 67|
	17, 66|
	17, 69|
	17, 59|
	17, 58|
	17, 57|
	17, 70|
	17, 71|
	17, 72|
	17, 73|
	17, 74|
	17, 54|
	17, 68|
	17, 40|
	14, 52|
	14, 48|
	14, 46|
	14, 55|
	14, 56|
	14, 51|
	14, 38|
	14, 47|
	14, 23|
	14, 24|
	14, 25|
	14, 26|
	14, 27|
	14, 33|
	14, 34|
	14, 35|
	14, 61|
	14, 62|
	14, 63|
	14, 64|
	14, 65|
	14, 36|
	14, 37|
	14, 75|
	14, 67|
	14, 66|
	14, 69|
	14, 59|
	14, 58|
	14, 57|
	14, 70|
	14, 71|
	14, 72|
	14, 73|
	14, 74|
	14, 54|
	14, 68|
	14, 40|
	18, 52|
	18, 48|
	18, 46|
	18, 55|
	18, 56|
	18, 51|
	18, 38|
	18, 47|
	18, 23|
	18, 24|
	18, 25|
	18, 26|
	18, 27|
	18, 33|
	18, 34|
	18, 35|
	18, 62|
	18, 63|
	18, 64|
	18, 65|
	18, 36|
	18, 37|
	18, 75|
	18, 67|
	18, 66|
	18, 69|
	18, 59|
	18, 58|
	18, 57|
	18, 70|
	18, 71|
	18, 72|
	18, 73|
	18, 74|
	18, 54|
	18, 68|
	18, 40|
	19, 52|
	19, 48|
	19, 46|
	19, 55|
	19, 56|
	19, 51|
	19, 38|
	19, 47|
	19, 23|
	19, 24|
	19, 25|
	19, 26|
	19, 27|
	19, 33|
	19, 34|
	19, 35|
	19, 63|
	19, 64|
	19, 65|
	19, 36|
	19, 37|
	19, 75|
	19, 67|
	19, 66|
	19, 69|
	19, 59|
	19, 58|
	19, 57|
	19, 70|
	19, 71|
	19, 72|
	19, 73|
	19, 74|
	19, 54|
	19, 68|
	19, 40|
	53, 52|
	53, 48|
	53, 46|
	53, 55|
	53, 56|
	53, 51|
	53, 38|
	53, 47|
	53, 23|
	53, 24|
	53, 25|
	53, 26|
	53, 27|
	53, 33|
	53, 34|
	53, 35|
	53, 64|
	53, 65|
	53, 37|
	53, 75|
	53, 67|
	53, 66|
	53, 69|
	53, 59|
	53, 58|
	53, 57|
	53, 70|
	53, 71|
	53, 72|
	53, 73|
	53, 74|
	53, 54|
	53, 68|
	53, 40|
	20, 52|
	20, 48|
	20, 46|
	20, 55|
	20, 56|
	20, 51|
	20, 38|
	20, 47|
	20, 23|
	20, 24|
	20, 25|
	20, 26|
	20, 27|
	20, 34|
	20, 35|
	20, 65|
	20, 75|
	20, 67|
	20, 66|
	20, 69|
	20, 59|
	20, 58|
	20, 57|
	20, 70|
	20, 71|
	20, 72|
	20, 73|
	20, 74|
	20, 54|
	20, 68|
	20, 40|
	21, 52|
	21, 48|
	21, 46|
	21, 55|
	21, 56|
	21, 51|
	21, 38|
	21, 47|
	21, 23|
	21, 24|
	21, 25|
	21, 26|
	21, 27|
	21, 35|
	21, 65|
	21, 75|
	21, 67|
	21, 66|
	21, 69|
	21, 59|
	21, 58|
	21, 57|
	21, 70|
	21, 71|
	21, 72|
	21, 73|
	21, 74|
	21, 54|
	21, 68|
	21, 40|
	22, 52|
	22, 48|
	22, 46|
	22, 55|
	22, 56|
	22, 51|
	22, 38|
	22, 47|
	22, 23|
	22, 24|
	22, 25|
	22, 26|
	22, 27|
	22, 65|
	22, 75|
	22, 67|
	22, 66|
	22, 69|
	22, 59|
	22, 58|
	22, 57|
	22, 70|
	22, 71|
	22, 72|
	22, 73|
	22, 74|
	22, 54|
	22, 68|
	22, 40|
	52, 23|
	52, 24|
	52, 25|
	52, 26|
	52, 27|
	52, 75|
	48, 52|
	48, 23|
	48, 24|
	48, 25|
	48, 26|
	48, 27|
	48, 75|
	46, 52|
	46, 48|
	46, 23|
	46, 24|
	46, 25|
	46, 26|
	46, 27|
	46, 75|
	55, 52|
	55, 48|
	55, 46|
	55, 23|
	55, 24|
	55, 25|
	55, 26|
	55, 27|
	55, 75|
	56, 52|
	56, 48|
	56, 46|
	56, 55|
	56, 23|
	56, 24|
	56, 25|
	56, 26|
	56, 27|
	56, 75|
	56, 68|
	51, 52|
	51, 48|
	51, 46|
	51, 55|
	51, 56|
	51, 23|
	51, 24|
	51, 25|
	51, 26|
	51, 27|
	51, 75|
	51, 68|
	51, 40|
	38, 52|
	38, 48|
	38, 46|
	38, 55|
	38, 56|
	38, 51|
	38, 23|
	38, 24|
	38, 25|
	38, 26|
	38, 27|
	38, 75|
	38, 67|
	38, 66|
	38, 69|
	38, 70|
	38, 71|
	38, 68|
	38, 40|
	47, 52|
	47, 48|
	47, 46|
	47, 55|
	47, 56|
	47, 51|
	47, 38|
	47, 23|
	47, 24|
	47, 25|
	47, 26|
	47, 27|
	47, 75|
	47, 67|
	47, 66|
	47, 69|
	47, 59|
	47, 70|
	47, 71|
	47, 72|
	47, 73|
	47, 74|
	47, 68|
	47, 40|
	24, 23|
	25, 23|
	25, 24|
	26, 23|
	26, 24|
	26, 25|
	26, 75|
	27, 23|
	27, 24|
	27, 25|
	27, 26|
	27, 75|
	43, 41|
	43, 28|
	43, 29|
	43, 30|
	43, 44|
	43, 45|
	43, 31|
	43, 32|
	43, 75|
	43, 57|
	41, 28|
	41, 29|
	41, 30|
	41, 75|
	41, 58|
	41, 57|
	28, 29|
	28, 30|
	28, 75|
	28, 58|
	28, 57|
	29, 30|
	29, 75|
	29, 58|
	29, 57|
	30, 75|
	30, 58|
	30, 57|
	42, 43|
	42, 41|
	42, 28|
	42, 29|
	42, 30|
	42, 44|
	42, 45|
	42, 31|
	42, 32|
	42, 75|
	44, 41|
	44, 28|
	44, 29|
	44, 30|
	44, 45|
	44, 31|
	44, 32|
	44, 75|
	45, 41|
	45, 28|
	45, 29|
	45, 30|
	45, 31|
	45, 32|
	45, 75|
	31, 41|
	31, 28|
	31, 29|
	31, 30|
	31, 32|
	31, 75|
	32, 28|
	32, 29|
	32, 30|
	32, 75|
	32, 57|
	39, 43|
	39, 41|
	39, 28|
	39, 29|
	39, 30|
	39, 44|
	39, 45|
	39, 31|
	39, 32|
	39, 75|
	39, 57|
	60, 33|
	60, 36|
	60, 37|
	61, 33|
	61, 34|
	61, 36|
	61, 37|
	62, 33|
	62, 34|
	62, 35|
	62, 37|
	63, 33|
	63, 34|
	63, 35|
	64, 34|
	64, 35|
	65, 35|
	75, 68|
	75, 40|
	70, 67|
	70, 68|
	70, 40|
	71, 67|
	71, 66|
	71, 40|
	72, 67|
	72, 66|
	72, 69|
	73, 67|
	73, 66|
	73, 69|
	74, 66|
	74, 69|
	74, 59|
	54, 69|
	54, 59|
	54, 58|];
DisjunctiveConstraints =  [|2, 22, 2, 3|
	3, 2, 3, 4|
	4, 3, 4, 5|
	5, 4, 5, 6|
	6, 5, 6, 7|
	7, 6, 7, 8|
	8, 7, 8, 9|
	9, 8, 9, 10|
	10, 9, 10, 12|
	1, 23, 1, 60|
	13, 38, 13, 1|
	13, 23, 13, 60|
	49, 13, 49, 15|
	49, 48, 49, 11|
	49, 24, 49, 61|
	11, 1, 11, 14|
	11, 24, 11, 61|
	15, 49, 15, 16|
	15, 51, 15, 14|
	15, 25, 15, 62|
	16, 15, 16, 50|
	16, 55, 16, 18|
	16, 26, 16, 63|
	16, 73, 16, 36|
	50, 16, 50, 17|
	50, 27, 50, 64|
	50, 70, 50, 33|
	50, 74, 50, 37|
	17, 71, 17, 34|
	14, 11, 14, 18|
	14, 25, 14, 62|
	14, 73, 14, 36|
	18, 14, 18, 19|
	18, 26, 18, 63|
	18, 73, 18, 36|
	18, 74, 18, 37|
	19, 18, 19, 53|
	19, 27, 19, 64|
	19, 70, 19, 33|
	19, 74, 19, 37|
	53, 19, 53, 20|
	53, 71, 53, 34|
	20, 53, 20, 21|
	20, 65, 20, 28|
	20, 72, 20, 35|
	21, 20, 21, 22|
	21, 65, 21, 28|
	22, 21, 22, 2|
	52, 23, 60, 52|
	52, 24, 61, 52|
	52, 25, 62, 52|
	52, 26, 63, 52|
	48, 23, 60, 48|
	48, 24, 61, 48|
	48, 25, 62, 48|
	48, 26, 63, 48|
	48, 27, 64, 48|
	46, 23, 60, 46|
	46, 24, 61, 46|
	46, 25, 62, 46|
	46, 26, 63, 46|
	46, 27, 64, 46|
	55, 23, 60, 55|
	55, 24, 61, 55|
	55, 25, 62, 55|
	55, 26, 63, 55|
	55, 27, 64, 55|
	56, 52, 56, 15|
	56, 48, 56, 11|
	56, 24, 61, 56|
	56, 25, 62, 56|
	56, 26, 63, 56|
	56, 27, 64, 56|
	51, 52, 51, 15|
	51, 48, 51, 11|
	51, 46, 51, 9|
	51, 25, 62, 51|
	51, 26, 63, 51|
	51, 27, 64, 51|
	38, 52, 38, 15|
	38, 48, 38, 11|
	38, 46, 38, 9|
	38, 55, 38, 18|
	38, 26, 63, 38|
	38, 27, 64, 38|
	47, 52, 47, 15|
	47, 48, 47, 11|
	47, 46, 47, 9|
	47, 55, 47, 18|
	47, 27, 64, 47|
	43, 30, 43, 67|
	43, 66, 43, 29|
	41, 57, 41, 20|
	28, 57, 28, 20|
	29, 57, 29, 20|
	30, 57, 30, 20|
	42, 41, 4, 42|
	42, 28, 65, 42|
	42, 29, 66, 42|
	42, 30, 67, 42|
	44, 41, 4, 44|
	44, 28, 65, 44|
	44, 29, 66, 44|
	44, 30, 67, 44|
	45, 28, 65, 45|
	45, 29, 66, 45|
	45, 30, 67, 45|
	31, 29, 66, 31|
	31, 30, 67, 31|
	32, 30, 67, 32|
	32, 68, 31, 32|
	39, 30, 39, 67|
	39, 65, 39, 28|
	39, 66, 39, 29|
	33, 37, 33, 34|
	34, 33, 34, 35|
	60, 73, 60, 36|
	61, 60, 61, 62|
	61, 74, 61, 37|
	62, 61, 62, 63|
	62, 70, 62, 33|
	63, 62, 63, 64|
	63, 71, 63, 34|
	64, 63, 64, 65|
	64, 72, 64, 35|
	37, 36, 37, 33|
	67, 40, 67, 66|
	66, 67, 66, 69|
	69, 66, 69, 59|
	59, 69, 59, 58|
	58, 59, 58, 57|
	70, 75, 70, 71|
	71, 70, 71, 72|
	72, 71, 72, 73|
	73, 72, 73, 74|
	74, 73, 74, 54|
	40, 68, 40, 67|];
SoftAtomicConstraints =  [|
22, 2|
2, 3|
3, 4|
4, 5|
5, 6|
6, 7|
7, 8|
8, 9|
9, 10|
1, 11|
10, 12|
11, 14|
49, 15|
15, 16|
50, 17|
14, 18|
18, 19|
53, 20|
20, 21|
21, 22|
41, 32|
37, 33|
33, 34|
34, 35|
36, 37|
68, 40|
39, 42|
13, 49|
16, 50|
19, 53|
74, 54|
58, 57|
59, 58|
69, 59|
60, 61|
61, 62|
62, 63|
63, 64|
64, 65|
67, 66|
40, 67|
66, 69|
75, 70|
70, 71|
71, 72|
72, 73|
73, 74|];
DirectSuccessors =  [1,
11,
13,
49,
14,
15,
16,
18,
60,
33,
34,
35,
61,
62,
63,
64,
36,
37];
